certificates/rado_a14_c300_N53.cnf
c Rad2 upper bound instance: x1 + 14*x2 - x3 = 300, interval [1,53]
p cnf 53 400
1 9 22 0
-1 -9 -22 0
1 23 0
-1 -23 0
1 24 37 0
-1 -24 -37 0
1 25 51 0
-1 -25 -51 0
2 10 22 0
-2 -10 -22 0
2 23 24 0
-2 -23 -24 0
2 24 38 0
-2 -24 -38 0
2 25 52 0
-2 -25 -52 0
3 11 22 0
-3 -11 -22 0
3 23 25 0
-3 -23 -25 0
3 24 39 0
-3 -24 -39 0
3 25 53 0
-3 -25 -53 0
4 12 22 0
-4 -12 -22 0
4 23 26 0
-4 -23 -26 0
4 24 40 0
-4 -24 -40 0
5 13 22 0
-5 -13 -22 0
5 23 27 0
-5 -23 -27 0
5 24 41 0
-5 -24 -41 0
6 14 22 0
-6 -14 -22 0
6 23 28 0
-6 -23 -28 0
6 24 42 0
-6 -24 -42 0
1 7 21 0
-1 -7 -21 0
7 15 22 0
-7 -15 -22 0
7 23 29 0
-7 -23 -29 0
7 24 43 0
-7 -24 -43 0
2 8 21 0
-2 -8 -21 0
8 16 22 0
-8 -16 -22 0
8 23 30 0
-8 -23 -30 0
8 24 44 0
-8 -24 -44 0
3 9 21 0
-3 -9 -21 0
9 17 22 0
-9 -17 -22 0
9 23 31 0
-9 -23 -31 0
9 24 45 0
-9 -24 -45 0
4 10 21 0
-4 -10 -21 0
10 18 22 0
-10 -18 -22 0
10 23 32 0
-10 -23 -32 0
10 24 46 0
-10 -24 -46 0
5 11 21 0
-5 -11 -21 0
11 19 22 0
-11 -19 -22 0
11 23 33 0
-11 -23 -33 0
11 24 47 0
-11 -24 -47 0
6 12 21 0
-6 -12 -21 0
12 20 22 0
-12 -20 -22 0
12 23 34 0
-12 -23 -34 0
12 24 48 0
-12 -24 -48 0
7 13 21 0
-7 -13 -21 0
13 21 22 0
-13 -21 -22 0
13 23 35 0
-13 -23 -35 0
13 24 49 0
-13 -24 -49 0
8 14 21 0
-8 -14 -21 0
14 22 0
-14 -22 0
14 23 36 0
-14 -23 -36 0
14 24 50 0
-14 -24 -50 0
9 15 21 0
-9 -15 -21 0
15 22 23 0
-15 -22 -23 0
15 23 37 0
-15 -23 -37 0
15 24 51 0
-15 -24 -51 0
10 16 21 0
-10 -16 -21 0
16 22 24 0
-16 -22 -24 0
16 23 38 0
-16 -23 -38 0
16 24 52 0
-16 -24 -52 0
11 17 21 0
-11 -17 -21 0
17 22 25 0
-17 -22 -25 0
17 23 39 0
-17 -23 -39 0
17 24 53 0
-17 -24 -53 0
12 18 21 0
-12 -18 -21 0
18 22 26 0
-18 -22 -26 0
18 23 40 0
-18 -23 -40 0
13 19 21 0
-13 -19 -21 0
19 22 27 0
-19 -22 -27 0
19 23 41 0
-19 -23 -41 0
14 20 21 0
-14 -20 -21 0
20 22 28 0
-20 -22 -28 0
20 23 42 0
-20 -23 -42 0
1 20 21 0
-1 -20 -21 0
15 21 0
-15 -21 0
21 22 29 0
-21 -22 -29 0
21 23 43 0
-21 -23 -43 0
2 20 22 0
-2 -20 -22 0
16 21 22 0
-16 -21 -22 0
22 30 0
-22 -30 0
22 23 44 0
-22 -23 -44 0
3 20 23 0
-3 -20 -23 0
17 21 23 0
-17 -21 -23 0
22 23 31 0
-22 -23 -31 0
23 45 0
-23 -45 0
4 20 24 0
-4 -20 -24 0
18 21 24 0
-18 -21 -24 0
22 24 32 0
-22 -24 -32 0
23 24 46 0
-23 -24 -46 0
5 20 25 0
-5 -20 -25 0
19 21 25 0
-19 -21 -25 0
22 25 33 0
-22 -25 -33 0
23 25 47 0
-23 -25 -47 0
6 20 26 0
-6 -20 -26 0
20 21 26 0
-20 -21 -26 0
22 26 34 0
-22 -26 -34 0
23 26 48 0
-23 -26 -48 0
7 20 27 0
-7 -20 -27 0
21 27 0
-21 -27 0
22 27 35 0
-22 -27 -35 0
23 27 49 0
-23 -27 -49 0
8 20 28 0
-8 -20 -28 0
21 22 28 0
-21 -22 -28 0
22 28 36 0
-22 -28 -36 0
23 28 50 0
-23 -28 -50 0
9 20 29 0
-9 -20 -29 0
21 23 29 0
-21 -23 -29 0
22 29 37 0
-22 -29 -37 0
23 29 51 0
-23 -29 -51 0
10 20 30 0
-10 -20 -30 0
21 24 30 0
-21 -24 -30 0
22 30 38 0
-22 -30 -38 0
23 30 52 0
-23 -30 -52 0
11 20 31 0
-11 -20 -31 0
21 25 31 0
-21 -25 -31 0
22 31 39 0
-22 -31 -39 0
23 31 53 0
-23 -31 -53 0
12 20 32 0
-12 -20 -32 0
21 26 32 0
-21 -26 -32 0
22 32 40 0
-22 -32 -40 0
13 20 33 0
-13 -20 -33 0
21 27 33 0
-21 -27 -33 0
22 33 41 0
-22 -33 -41 0
14 20 34 0
-14 -20 -34 0
21 28 34 0
-21 -28 -34 0
22 34 42 0
-22 -34 -42 0
1 19 35 0
-1 -19 -35 0
15 20 35 0
-15 -20 -35 0
21 29 35 0
-21 -29 -35 0
22 35 43 0
-22 -35 -43 0
2 19 36 0
-2 -19 -36 0
16 20 36 0
-16 -20 -36 0
21 30 36 0
-21 -30 -36 0
22 36 44 0
-22 -36 -44 0
3 19 37 0
-3 -19 -37 0
17 20 37 0
-17 -20 -37 0
21 31 37 0
-21 -31 -37 0
22 37 45 0
-22 -37 -45 0
4 19 38 0
-4 -19 -38 0
18 20 38 0
-18 -20 -38 0
21 32 38 0
-21 -32 -38 0
22 38 46 0
-22 -38 -46 0
5 19 39 0
-5 -19 -39 0
19 20 39 0
-19 -20 -39 0
21 33 39 0
-21 -33 -39 0
22 39 47 0
-22 -39 -47 0
6 19 40 0
-6 -19 -40 0
20 40 0
-20 -40 0
21 34 40 0
-21 -34 -40 0
22 40 48 0
-22 -40 -48 0
7 19 41 0
-7 -19 -41 0
20 21 41 0
-20 -21 -41 0
21 35 41 0
-21 -35 -41 0
22 41 49 0
-22 -41 -49 0
8 19 42 0
-8 -19 -42 0
20 22 42 0
-20 -22 -42 0
21 36 42 0
-21 -36 -42 0
22 42 50 0
-22 -42 -50 0
9 19 43 0
-9 -19 -43 0
20 23 43 0
-20 -23 -43 0
21 37 43 0
-21 -37 -43 0
22 43 51 0
-22 -43 -51 0
10 19 44 0
-10 -19 -44 0
20 24 44 0
-20 -24 -44 0
21 38 44 0
-21 -38 -44 0
22 44 52 0
-22 -44 -52 0
11 19 45 0
-11 -19 -45 0
20 25 45 0
-20 -25 -45 0
21 39 45 0
-21 -39 -45 0
22 45 53 0
-22 -45 -53 0
12 19 46 0
-12 -19 -46 0
20 26 46 0
-20 -26 -46 0
21 40 46 0
-21 -40 -46 0
13 19 47 0
-13 -19 -47 0
20 27 47 0
-20 -27 -47 0
21 41 47 0
-21 -41 -47 0
14 19 48 0
-14 -19 -48 0
20 28 48 0
-20 -28 -48 0
21 42 48 0
-21 -42 -48 0
1 18 49 0
-1 -18 -49 0
15 19 49 0
-15 -19 -49 0
20 29 49 0
-20 -29 -49 0
21 43 49 0
-21 -43 -49 0
2 18 50 0
-2 -18 -50 0
16 19 50 0
-16 -19 -50 0
20 30 50 0
-20 -30 -50 0
21 44 50 0
-21 -44 -50 0
3 18 51 0
-3 -18 -51 0
17 19 51 0
-17 -19 -51 0
20 31 51 0
-20 -31 -51 0
21 45 51 0
-21 -45 -51 0
4 18 52 0
-4 -18 -52 0
18 19 52 0
-18 -19 -52 0
20 32 52 0
-20 -32 -52 0
21 46 52 0
-21 -46 -52 0
5 18 53 0
-5 -18 -53 0
19 53 0
-19 -53 0
20 33 53 0
-20 -33 -53 0
21 47 53 0
-21 -47 -53 0
