certificates/rado_a14_c300_N53.drat
21 -49 -51 -52 19 0
-21 -52 -53 0
-51 21 -52 19 0
d 21 -49 -51 -52 19 0
-52 -53 0
d -21 -52 -53 0
23 -53 0
-53 0
19 0
-21 0
15 0
27 0
47 0
-49 0
-22 0
-13 0
-20 0
43 0
24 0
14 0
29 0
30 0
28 0
45 0
0
